! wB97M-V def2-TZVPP def2-tzvpp/c def2/j tightscf rijcosx GRID6

%pal
nprocs 24
end

* xyz 0 1
C      0.1632960000   -1.3905460000    0.0000000000
C     -1.1226690000   -0.8366810000    0.0000090000
C     -1.2859760000    0.5538630000   -0.0000080000
C     -0.1632720000    1.3905490000    0.0000010000
C      1.1226550000    0.8366990000    0.0000080000
C      1.2859670000   -0.5538840000   -0.0000080000
H      0.2908730000   -2.4776130000   -0.0000060000
H     -2.0002350000   -1.4907940000    0.0000080000
H     -2.2911850000    0.9869280000   -0.0000170000
H     -0.2909190000    2.4776080000   -0.0000010000
H      2.0002620000    1.4907570000    0.0000030000
H      2.2912020000   -0.9868870000   -0.0000090000
*
